1635750000
1635788700
1635850800
1635874200
1635937200
1635960600
1636023600
1636047000
1636095600
1636134300
1636369200
1636392600
1636455600
1636479000
1636542000
1636565400
1636628400
1636651800
1636714800
1636738200
1636974000
1636997400
1637060400
1637083800
1637146800
1637170200
1637233200
1637256600
1637319600
1637343000
1637578800
1637602200
1637665200
1637688600
1637751600
1637775000
1637838000
1637861400
1637924400
1637947800
1638270000
1638293400
